(set-info :smt-lib-version 2.6)
(set-logic QF_S)
(set-info :source |
Generated by: Hung-En Wang, Tzung-Lin Tsai, Chun-Han Lin, Fang Yu, and Jie-Hong R. Jiang
Generated on: 2019-02-28
Generator: Stranger
Application: Security analysis of string manipulating web applications
Target solver: CVC4, Norn, Z3-str2
Publication:
Hung-En Wang, Tzung-Lin Tsai, Chun-Han Lin, Fang Yu, Jie-Hong R. Jiang:
String Analysis via Automata Manipulation with Logic Circuit Representation. CAV (1) 2016: 241-260.
|)
(set-info :license "https://creativecommons.org/licenses/by/4.0/")
(set-info :category "industrial")
(set-info :status unknown)

(declare-fun sigmaStar_0 () String)
(declare-fun sigmaStar_3 () String)
(declare-fun sigmaStar_8 () String)
(declare-fun sigmaStar_9 () String)
(declare-fun literal_10 () String)
(declare-fun x_11 () String)
(declare-fun literal_12 () String)
(declare-fun x_14 () String)
(declare-fun literal_13 () String)
(declare-fun x_15 () String)
(declare-fun literal_16 () String)
(declare-fun x_17 () String)
(declare-fun sigmaStar_18 () String)
(declare-fun x_4 () String)
(assert (= x_4 (str.replace sigmaStar_0 "\u{2f}\u{5b}\u{5e}\u{30}\u{2d}\u{39}\u{61}\u{2d}\u{7a}\u{5c}\u{2d}\u{5f}\u{2c}\u{5d}\u{2b}\u{2f}\u{69}" "")))
(assert (= literal_10 "\u{70}\u{6c}\u{75}\u{67}\u{69}\u{6e}\u{73}\u{2f}"))
(assert (= x_11 (str.++ literal_10 sigmaStar_8)))
(assert (= literal_12 "\u{2f}\u{65}\u{64}\u{69}\u{74}\u{6f}\u{72}\u{5f}\u{70}\u{6c}\u{75}\u{67}\u{69}\u{6e}"))
(assert (= x_14 (str.++ x_11 literal_12)))
(assert (= literal_13 ""))
(assert (= x_15 (str.++ x_14 literal_13)))
(assert (= literal_16 "\u{2e}\u{6a}\u{73}"))
(assert (= x_17 (str.++ x_15 literal_16)))
(assert (str.in_re sigmaStar_18 (re.++ (re.* re.allchar) (re.++ (str.to_re "\u{2f}\u{65}\u{76}\u{69}\u{6c}") (re.* re.allchar)))))
(check-sat)
(exit)
